data;

param num_top:=4;

#nodes and edges of the physical network
param n := 10;

set E := (1,2) (1,3) (1,7) (2,4) (2,7) (3,5) (4,8) (5,6) (5,7) (6,7) (6,9) (7,8) (7,9) (8,10) (9,10) ;

#nodes and edges of the virtual networks
set Nl[1] := 1 7 6 2 ;
set Nl[2] := 1 6 8 3 ;
set Nl[3] := 6 3 8 9 ;
set Nl[4] := 3 10 6 1 ;

set El[1] := (1,7) (6,7) (2,6) (1,2) ;
set El[2] := (1,6) (6,8) (3,8) (1,3) ;
set El[3] := (3,6) (3,8) (8,9) (6,9) ;
set El[4] := (3,10) (6,10) (1,6) (1,3) ;
